NAME:38_19
TYPE: TSP
DIMENSION: 38
EDGE_WEIGHT_TYPE: EXPLICIT
EDGE_WEIGHT_FORMAT: UPPER_ROW
EDGE_WEIGHT_SECTION
1308 1308 1308 1308 1308 1308 1308 1308 1308 1308 1308 1308 1308 1308 1308 1308 1308 1308 0 569 573 547 499 632 547 547 551 551 555 559 559 563 563 565 569 569 621 1308 1308 1308 1308 1308 1308 1308 1308 1308 1308 1308 1308 1308 1308 1308 1308 1308 499 0 440 462 462 499 462 458 458 454 454 454 450 450 446 444 444 440 488 1308 1308 1308 1308 1308 1308 1308 1308 1308 1308 1308 1308 1308 1308 1308 1308 495 484 0 458 462 495 506 502 502 498 498 498 494 494 490 488 488 488 484 1308 1308 1308 1308 1308 1308 1308 1308 1308 1308 1308 1308 1308 1308 1308 521 462 462 0 488 521 488 484 484 480 480 480 476 476 472 470 470 466 510 1308 1308 1308 1308 1308 1308 1308 1308 1308 1308 1308 1308 1308 1308 521 654 606 628 0 569 632 632 636 636 640 644 644 648 648 650 654 654 606 1308 1308 1308 1308 1308 1308 1308 1308 1308 1308 1308 1308 1308 436 521 473 495 499 0 499 499 503 503 507 511 511 515 515 517 521 521 473 1308 1308 1308 1308 1308 1308 1308 1308 1308 1308 1308 1308 521 458 462 436 436 521 0 436 440 440 444 448 448 452 452 454 458 458 510 1308 1308 1308 1308 1308 1308 1308 1308 1308 1308 1308 521 458 462 440 440 521 440 0 440 440 444 448 448 452 452 454 458 458 510 1308 1308 1308 1308 1308 1308 1308 1308 1308 1308 517 454 458 440 440 517 440 436 0 436 440 444 444 448 448 450 454 454 506 1308 1308 1308 1308 1308 1308 1308 1308 1308 517 454 458 444 444 517 444 440 440 0 440 444 444 448 448 450 454 454 506 1308 1308 1308 1308 1308 1308 1308 1308 513 450 454 444 444 513 444 440 440 436 0 440 440 444 444 446 450 450 502 1308 1308 1308 1308 1308 1308 1308 509 446 450 444 444 509 444 440 440 436 436 0 436 440 440 442 446 446 498 1308 1308 1308 1308 1308 1308 509 446 450 448 448 509 448 444 444 440 440 440 0 440 440 442 446 446 498 1308 1308 1308 1308 1308 505 442 446 448 448 505 448 444 444 440 440 440 436 0 436 438 442 442 494 1308 1308 1308 1308 505 442 446 452 452 505 452 448 448 444 444 444 440 440 0 438 442 442 494 1308 1308 1308 503 440 444 454 454 503 454 450 450 446 446 446 442 442 438 0 440 440 492 1308 1308 499 436 440 454 454 499 454 450 450 446 446 446 442 442 438 436 0 436 488 1308 499 436 440 458 458 499 458 454 454 450 450 450 446 446 442 440 440 0 488 447 484 436 458 462 447 462 462 466 466 470 474 474 478 478 480 484 484 0 1308 1308 1308 1308 1308 1308 1308 1308 1308 1308 1308 1308 1308 1308 1308 1308 1308 1308 1308 1308 1308 1308 1308 1308 1308 1308 1308 1308 1308 1308 1308 1308 1308 1308 1308 1308 1308 1308 1308 1308 1308 1308 1308 1308 1308 1308 1308 1308 1308 1308 1308 1308 1308 1308 1308 1308 1308 1308 1308 1308 1308 1308 1308 1308 1308 1308 1308 1308 1308 1308 1308 1308 1308 1308 1308 1308 1308 1308 1308 1308 1308 1308 1308 1308 1308 1308 1308 1308 1308 1308 1308 1308 1308 1308 1308 1308 1308 1308 1308 1308 1308 1308 1308 1308 1308 1308 1308 1308 1308 1308 1308 1308 1308 1308 1308 1308 1308 1308 1308 1308 1308 1308 1308 1308 1308 1308 1308 1308 1308 1308 1308 1308 1308 1308 1308 1308 1308 1308 1308 1308 1308 1308 1308 1308 1308 1308 1308 1308 1308 1308 1308 1308 1308 1308 1308 1308 1308 1308 1308 1308 1308 1308 1308 1308 1308 1308 1308 1308 1308 1308 1308 